# Solution for model obj
# Objective value = 4.6608314358999996e+04
z 4.6608314358999996e+04
X_1_1 0
X_1_2 0
X_1_3 0
X_1_4 0
X_1_5 0
X_1_6 0
X_1_7 1
X_1_8 0
X_1_9 0
X_1_10 0
X_1_11 0
X_1_12 0
X_1_13 0
X_1_14 0
X_1_15 0
X_1_16 0
X_1_17 0
X_1_18 0
X_1_19 0
X_1_20 0
X_1_21 0
X_1_22 0
X_1_23 0
X_1_24 0
X_1_25 0
X_2_1 0
X_2_2 0
X_2_3 0
X_2_4 0
X_2_5 0
X_2_6 0
X_2_7 1
X_2_8 0
X_2_9 0
X_2_10 0
X_2_11 0
X_2_12 0
X_2_13 0
X_2_14 0
X_2_15 0
X_2_16 0
X_2_17 0
X_2_18 0
X_2_19 0
X_2_20 0
X_2_21 0
X_2_22 0
X_2_23 0
X_2_24 0
X_2_25 0
X_3_1 0
X_3_2 0
X_3_3 0
X_3_4 0
X_3_5 0
X_3_6 0
X_3_7 1
X_3_8 0
X_3_9 0
X_3_10 0
X_3_11 0
X_3_12 0
X_3_13 0
X_3_14 0
X_3_15 0
X_3_16 0
X_3_17 0
X_3_18 0
X_3_19 0
X_3_20 0
X_3_21 0
X_3_22 0
X_3_23 0
X_3_24 0
X_3_25 0
X_4_1 0
X_4_2 0
X_4_3 0
X_4_4 0
X_4_5 0
X_4_6 0
X_4_7 1
X_4_8 0
X_4_9 0
X_4_10 0
X_4_11 0
X_4_12 0
X_4_13 0
X_4_14 0
X_4_15 0
X_4_16 0
X_4_17 0
X_4_18 0
X_4_19 0
X_4_20 0
X_4_21 0
X_4_22 0
X_4_23 0
X_4_24 0
X_4_25 0
X_5_1 0
X_5_2 0
X_5_3 0
X_5_4 0
X_5_5 1
X_5_6 0
X_5_7 0
X_5_8 0
X_5_9 0
X_5_10 0
X_5_11 0
X_5_12 0
X_5_13 0
X_5_14 0
X_5_15 0
X_5_16 0
X_5_17 0
X_5_18 0
X_5_19 0
X_5_20 0
X_5_21 0
X_5_22 0
X_5_23 0
X_5_24 0
X_5_25 0
X_6_1 0
X_6_2 0
X_6_3 0
X_6_4 0
X_6_5 0
X_6_6 0
X_6_7 1
X_6_8 0
X_6_9 0
X_6_10 0
X_6_11 0
X_6_12 0
X_6_13 0
X_6_14 0
X_6_15 0
X_6_16 0
X_6_17 0
X_6_18 0
X_6_19 0
X_6_20 0
X_6_21 0
X_6_22 0
X_6_23 0
X_6_24 0
X_6_25 0
X_7_1 0
X_7_2 0
X_7_3 0
X_7_4 0
X_7_5 0
X_7_6 0
X_7_7 1
X_7_8 0
X_7_9 0
X_7_10 0
X_7_11 0
X_7_12 0
X_7_13 0
X_7_14 0
X_7_15 0
X_7_16 0
X_7_17 0
X_7_18 0
X_7_19 0
X_7_20 0
X_7_21 0
X_7_22 0
X_7_23 0
X_7_24 0
X_7_25 0
X_8_1 0
X_8_2 0
X_8_3 0
X_8_4 0
X_8_5 0
X_8_6 0
X_8_7 1
X_8_8 0
X_8_9 0
X_8_10 0
X_8_11 0
X_8_12 0
X_8_13 0
X_8_14 0
X_8_15 0
X_8_16 0
X_8_17 0
X_8_18 0
X_8_19 0
X_8_20 0
X_8_21 0
X_8_22 0
X_8_23 0
X_8_24 0
X_8_25 0
X_9_1 0
X_9_2 0
X_9_3 0
X_9_4 0
X_9_5 0
X_9_6 0
X_9_7 1
X_9_8 0
X_9_9 0
X_9_10 0
X_9_11 0
X_9_12 0
X_9_13 0
X_9_14 0
X_9_15 0
X_9_16 0
X_9_17 0
X_9_18 0
X_9_19 0
X_9_20 0
X_9_21 0
X_9_22 0
X_9_23 0
X_9_24 0
X_9_25 0
X_10_1 0
X_10_2 0
X_10_3 0
X_10_4 0
X_10_5 0
X_10_6 0
X_10_7 1
X_10_8 0
X_10_9 0
X_10_10 0
X_10_11 0
X_10_12 0
X_10_13 0
X_10_14 0
X_10_15 0
X_10_16 0
X_10_17 0
X_10_18 0
X_10_19 0
X_10_20 0
X_10_21 0
X_10_22 0
X_10_23 0
X_10_24 0
X_10_25 0
X_11_1 0
X_11_2 0
X_11_3 0
X_11_4 0
X_11_5 0
X_11_6 0
X_11_7 1
X_11_8 0
X_11_9 0
X_11_10 0
X_11_11 0
X_11_12 0
X_11_13 0
X_11_14 0
X_11_15 0
X_11_16 0
X_11_17 0
X_11_18 0
X_11_19 0
X_11_20 0
X_11_21 0
X_11_22 0
X_11_23 0
X_11_24 0
X_11_25 0
X_12_1 0
X_12_2 0
X_12_3 0
X_12_4 0
X_12_5 0
X_12_6 0
X_12_7 1
X_12_8 0
X_12_9 0
X_12_10 0
X_12_11 0
X_12_12 0
X_12_13 0
X_12_14 0
X_12_15 0
X_12_16 0
X_12_17 0
X_12_18 0
X_12_19 0
X_12_20 0
X_12_21 0
X_12_22 0
X_12_23 0
X_12_24 0
X_12_25 0
X_13_1 0
X_13_2 0
X_13_3 0
X_13_4 0
X_13_5 0
X_13_6 0
X_13_7 1
X_13_8 0
X_13_9 0
X_13_10 0
X_13_11 0
X_13_12 0
X_13_13 0
X_13_14 0
X_13_15 0
X_13_16 0
X_13_17 0
X_13_18 0
X_13_19 0
X_13_20 0
X_13_21 0
X_13_22 0
X_13_23 0
X_13_24 0
X_13_25 0
X_14_1 0
X_14_2 0
X_14_3 0
X_14_4 0
X_14_5 0
X_14_6 0
X_14_7 1
X_14_8 0
X_14_9 0
X_14_10 0
X_14_11 0
X_14_12 0
X_14_13 0
X_14_14 0
X_14_15 0
X_14_16 0
X_14_17 0
X_14_18 0
X_14_19 0
X_14_20 0
X_14_21 0
X_14_22 0
X_14_23 0
X_14_24 0
X_14_25 0
X_15_1 0
X_15_2 0
X_15_3 0
X_15_4 0
X_15_5 0
X_15_6 0
X_15_7 1
X_15_8 0
X_15_9 0
X_15_10 0
X_15_11 0
X_15_12 0
X_15_13 0
X_15_14 0
X_15_15 0
X_15_16 0
X_15_17 0
X_15_18 0
X_15_19 0
X_15_20 0
X_15_21 0
X_15_22 0
X_15_23 0
X_15_24 0
X_15_25 0
X_16_1 0
X_16_2 0
X_16_3 0
X_16_4 0
X_16_5 0
X_16_6 0
X_16_7 1
X_16_8 0
X_16_9 0
X_16_10 0
X_16_11 0
X_16_12 0
X_16_13 0
X_16_14 0
X_16_15 0
X_16_16 0
X_16_17 0
X_16_18 0
X_16_19 0
X_16_20 0
X_16_21 0
X_16_22 0
X_16_23 0
X_16_24 0
X_16_25 0
X_17_1 0
X_17_2 0
X_17_3 0
X_17_4 0
X_17_5 0
X_17_6 0
X_17_7 1
X_17_8 0
X_17_9 0
X_17_10 0
X_17_11 0
X_17_12 0
X_17_13 0
X_17_14 0
X_17_15 0
X_17_16 0
X_17_17 0
X_17_18 0
X_17_19 0
X_17_20 0
X_17_21 0
X_17_22 0
X_17_23 0
X_17_24 0
X_17_25 0
X_18_1 0
X_18_2 0
X_18_3 0
X_18_4 0
X_18_5 0
X_18_6 0
X_18_7 1
X_18_8 0
X_18_9 0
X_18_10 0
X_18_11 0
X_18_12 0
X_18_13 0
X_18_14 0
X_18_15 0
X_18_16 0
X_18_17 0
X_18_18 0
X_18_19 0
X_18_20 0
X_18_21 0
X_18_22 0
X_18_23 0
X_18_24 0
X_18_25 0
X_19_1 0
X_19_2 0
X_19_3 0
X_19_4 0
X_19_5 0
X_19_6 0
X_19_7 1
X_19_8 0
X_19_9 0
X_19_10 0
X_19_11 0
X_19_12 0
X_19_13 0
X_19_14 0
X_19_15 0
X_19_16 0
X_19_17 0
X_19_18 0
X_19_19 0
X_19_20 0
X_19_21 0
X_19_22 0
X_19_23 0
X_19_24 0
X_19_25 0
X_20_1 0
X_20_2 0
X_20_3 0
X_20_4 0
X_20_5 0
X_20_6 0
X_20_7 1
X_20_8 0
X_20_9 0
X_20_10 0
X_20_11 0
X_20_12 0
X_20_13 0
X_20_14 0
X_20_15 0
X_20_16 0
X_20_17 0
X_20_18 0
X_20_19 0
X_20_20 0
X_20_21 0
X_20_22 0
X_20_23 0
X_20_24 0
X_20_25 0
X_21_1 0
X_21_2 0
X_21_3 0
X_21_4 0
X_21_5 0
X_21_6 0
X_21_7 0
X_21_8 0
X_21_9 0
X_21_10 0
X_21_11 0
X_21_12 0
X_21_13 0
X_21_14 0
X_21_15 0
X_21_16 0
X_21_17 0
X_21_18 0
X_21_19 0
X_21_20 0
X_21_21 1
X_21_22 0
X_21_23 0
X_21_24 0
X_21_25 0
X_22_1 0
X_22_2 0
X_22_3 0
X_22_4 0
X_22_5 0
X_22_6 0
X_22_7 1
X_22_8 0
X_22_9 0
X_22_10 0
X_22_11 0
X_22_12 0
X_22_13 0
X_22_14 0
X_22_15 0
X_22_16 0
X_22_17 0
X_22_18 0
X_22_19 0
X_22_20 0
X_22_21 0
X_22_22 0
X_22_23 0
X_22_24 0
X_22_25 0
X_23_1 0
X_23_2 0
X_23_3 0
X_23_4 0
X_23_5 0
X_23_6 0
X_23_7 1
X_23_8 0
X_23_9 0
X_23_10 0
X_23_11 0
X_23_12 0
X_23_13 0
X_23_14 0
X_23_15 0
X_23_16 0
X_23_17 0
X_23_18 0
X_23_19 0
X_23_20 0
X_23_21 0
X_23_22 0
X_23_23 0
X_23_24 0
X_23_25 0
X_24_1 0
X_24_2 0
X_24_3 0
X_24_4 0
X_24_5 0
X_24_6 0
X_24_7 1
X_24_8 0
X_24_9 0
X_24_10 0
X_24_11 0
X_24_12 0
X_24_13 0
X_24_14 0
X_24_15 0
X_24_16 0
X_24_17 0
X_24_18 0
X_24_19 0
X_24_20 0
X_24_21 0
X_24_22 0
X_24_23 0
X_24_24 0
X_24_25 0
X_25_1 0
X_25_2 0
X_25_3 0
X_25_4 0
X_25_5 0
X_25_6 0
X_25_7 1
X_25_8 0
X_25_9 0
X_25_10 0
X_25_11 0
X_25_12 0
X_25_13 0
X_25_14 0
X_25_15 0
X_25_16 0
X_25_17 0
X_25_18 0
X_25_19 0
X_25_20 0
X_25_21 0
X_25_22 0
X_25_23 0
X_25_24 0
X_25_25 0
r_1 0
r_2 0
r_3 0
r_4 1.3370792309999975e+04
r_5 0
r_6 1.4273361571000018e+04
r_7 22105.146511
r_8 2.1071696123000023e+04
r_9 1.6766938803999998e+04
r_10 5.8551368999999195e+03
r_11 8.0128202359999150e+03
r_12 1.5334459935000017e+04
r_13 1.1124983266999934e+04
r_14 8.0957267259999244e+03
r_15 3.1441267919999264e+03
r_16 1.2356739927000017e+04
r_17 6.8308331309999430e+03
r_18 5619.39120499994
r_19 6.2559356619999508e+03
r_20 2.5915844989999277e+03
r_21 0
r_22 2.7141472099999410e+03
r_23 4.2421366259999322e+03
r_24 2.9483892409999444e+03
r_25 2.4168225219999513e+03
r_0 0
